param n:= 4;
param m:= 5;

param b := 
1	10
2	20
3	30
4       40;

param c := 
1	5
2	6
3	10
4	9
5	8;

param amt:	1	2	3       4:=
      1 	1	2	1	4
      2		2	2	2	3	
      3		3	3	3	2
      4		0	1	3	1
      5		2	0	1	0;
